1 1
2 2
3 1
4 1
5 2
6 2
7 1
8 1
9 2
10 1
11 1
12 2
13 2
14 1
15 1
16 2
17 2
18 2
19 1
20 2
21 2
22 2
23 1
24 2
25 2
26 1
27 1
28 2
29 2
30 2
31 1
32 1
33 2
34 1
35 2
36 1
37 1
38 1
39 2
40 1
41 2
42 1
43 1
44 1
45 1
46 1
47 2
48 1
49 1
50 1
51 2
52 1
53 2
54 1
55 2
56 2
57 1
58 1
59 1
60 2
61 1
62 2
63 1
64 1
65 2
66 1
67 2
68 1
69 1
70 1
71 2
72 1
73 1
74 1
75 1
76 1
77 2
78 1
79 1
80 2
81 1
82 2
83 1
84 1
85 1
86 2
87 2
88 1
89 2
90 1
91 1
92 2
93 2
94 2
95 2
96 1
97 2
98 2
99 2
100 2
101 1
102 1
103 1
104 1
105 1
106 2
107 2
108 2
109 2
110 2
111 1
112 1
113 2
114 1
115 1
116 1
117 1
118 1
119 2
120 1
121 2
122 1
123 2
124 2
125 1
126 2
127 2
128 2
129 1
130 1
131 2
132 1
133 2
134 2
135 2
136 2
137 1
138 2
139 1
140 1
141 1
142 2
143 2
144 1
145 1
146 1
147 2
148 2
149 2
150 1
151 1
152 2
153 1
154 1
155 2
156 1
157 2
158 1
159 2
160 2
161 2
162 2
163 2
164 2
165 1
166 2
167 2
168 2
169 2
170 2
171 2
172 1
173 2
174 2
175 1
176 1
177 2
178 1
179 2
180 2
181 1
182 1
183 1
184 1
185 1
186 1
187 2
188 2
189 1
190 1
191 2
192 2
193 1
194 2
195 2
196 1
197 2
198 2
199 2
200 1
201 1
202 2
203 2
204 2
205 1
206 1
207 2
208 2
209 2
210 1
211 2
212 2
213 2
214 1
215 2
216 2
217 2
218 1
219 1
220 2
221 2
222 2
223 1
224 1
225 2
226 2
227 2
228 2
229 2
230 2
231 2
232 1
233 1
234 1
235 2
236 1
237 2
238 1
239 2
240 1
241 1
242 2
243 2
244 1
245 1
246 2
247 1
248 1
249 1
250 2
251 2
252 2
253 1
254 2
255 1
256 2
257 2
258 1
259 1
260 2
261 1
262 2
263 1
264 1
265 2
266 2
267 1
268 1
269 1
270 1
271 1
272 1
273 1
274 1
275 2
276 1
277 1
278 1
279 2
280 2
281 2
282 1
283 2
284 1
285 1
286 1
287 2
288 1
289 2
290 2
291 1
292 2
293 2
294 2
295 2
296 2
297 2
298 2
299 1
300 1
301 1
302 1
303 2
304 1
305 2
306 2
307 2
308 2
309 2
310 1
311 2
312 2
313 2
314 1
315 1
316 2
317 1
318 2
319 1
320 1
321 1
322 2
323 1
324 2
325 1
326 2
327 1
328 2
329 2
330 1
331 1
332 1
333 1
334 2
335 2
336 2
337 2
338 2
339 1
340 2
341 2
342 1
343 1
344 1
345 1
346 1
347 2
348 1
349 2
350 2
351 2
352 1
353 1
354 1
355 1
356 1
357 2
358 2
359 1
360 2
361 2
362 2
363 1
364 2
365 1
366 1
367 2
368 1
369 1
370 1
371 1
372 1
373 2
374 1
375 2
376 1
377 1
378 1
379 2
380 2
381 1
382 1
383 1
384 1
385 2
386 2
387 2
388 2
389 1
390 1
391 2
392 1
393 1
394 1
395 2
396 1
397 1
398 2
399 1
400 1
401 1
402 2
403 1
404 1
405 1
406 2
407 1
408 2
409 2
410 1
411 1
412 1
413 1
414 2
415 1
416 1
417 1
418 2
419 1
420 1
421 2
422 1
423 1
424 1
425 2
426 2
427 2
428 2
429 2
430 2
431 1
432 2
433 2
434 2
435 2
436 1
437 1
438 2
439 1
440 2
441 1
442 1
443 1
444 2
445 2
446 2
447 2
448 1
449 1
450 2
451 2
452 1
453 1
454 2
455 1
456 1
457 2
458 2
459 2
460 2
461 2
462 2
463 2
464 1
465 1
466 2
467 1
468 2
469 2
470 2
471 1
472 2
473 2
474 2
475 1
476 2
477 1
478 2
479 1
480 2
481 1
482 1
483 1
484 1
485 1
486 1
487 2
488 1
489 1
490 1
491 2
492 2
493 1
494 2
495 1
496 1
497 2
498 2
499 1
500 2
501 2
502 1
503 1
504 2
505 2
506 1
507 2
508 2
509 1
510 1
511 2
512 1
513 1
514 2
515 2
516 1
517 2
518 2
519 1
520 1
521 1
522 2
523 2
524 2
525 1
526 1
527 1
528 2
529 2
530 2
531 1
532 2
533 2
534 2
535 1
536 1
537 1
538 1
539 1
540 2
541 2
542 2
543 1
544 2
545 2
546 2
547 2
548 2
549 1
550 1
551 1
552 1
553 1
554 2
555 1
556 1
557 2
558 1
559 1
560 1
561 2
562 2
563 2
564 2
565 2
566 2
567 2
568 2
569 1
570 2
571 1
572 1
573 1
574 2
575 2
576 1
577 1
578 2
579 2
580 1
581 1
582 1
583 2
584 2
585 2
586 1
587 1
588 1
589 2
590 1
591 2
592 2
593 2
594 1
595 2
596 1
597 2
598 2
599 1
600 2
601 2
602 2
603 2
604 2
605 2
606 2
607 2
608 2
609 1
610 1
611 1
612 2
613 1
614 1
615 2
616 2
617 2
618 2
619 1
620 2
621 2
622 2
623 1
624 2
625 2
626 1
627 1
628 2
629 1
630 1
631 2
632 2
633 1
634 1
635 2
636 2
637 2
638 1
639 1
640 1
641 2
642 1
643 1
644 1
645 1
646 1
647 1
648 1
649 2
650 2
651 2
652 1
653 1
654 1
655 2
656 2
657 1
658 2
659 2
660 1
661 1
662 1
663 1
664 1
665 1
666 1
667 2
668 1
669 1
670 1
671 1
672 1
673 1
674 2
675 2
676 2
677 2
678 2
679 1
680 2
681 1
682 1
683 2
684 1
685 1
686 2
687 1
688 2
689 2
690 2
691 2
692 2
693 2
694 1
695 1
696 2
697 1
698 2
699 1
700 2
701 2
702 1
703 1
704 1
705 2
706 2
707 1
708 1
709 1
710 1
711 1
712 1
713 2
714 1
715 1
716 1
717 2
718 1
719 1
720 2
721 1
722 2
723 1
724 2
725 2
726 2
727 1
728 2
729 2
730 1
731 1
732 1
733 1
734 1
735 2
736 1
737 2
738 2
739 2
740 1
741 2
742 2
743 2
744 1
745 2
746 2
747 1
748 2
749 2
750 2
751 1
752 1
753 2
754 2
755 2
756 1
757 2
758 2
759 1
760 1
761 2
762 2
763 1
764 2
765 2
766 2
767 2
768 2
769 2
770 1
771 2
772 2
773 1
774 1
775 1
776 1
777 1
778 1
779 1
780 2
781 1
782 1
783 2
784 1
785 2
786 2
787 2
788 1
789 2
790 2
791 2
792 2
793 2
794 2
795 2
796 1
797 1
798 1
799 2
800 1
801 2
802 2
803 1
804 1
805 1
806 2
807 2
808 2
809 2
810 2
811 2
812 1
813 2
814 1
815 1
816 1
817 1
818 2
819 1
820 1
821 2
822 2
823 1
824 1
825 1
826 1
827 2
828 2
829 1
830 2
831 1
832 1
833 2
834 2
835 1
836 2
837 2
838 1
839 2
840 1
841 2
842 2
843 1
844 2
845 2
846 2
847 2
848 1
849 1
850 1
851 2
852 1
853 1
854 1
855 1
856 2
857 1
858 1
859 1
860 1
861 2
862 1
863 2
864 2
865 2
866 2
867 1
868 2
869 1
870 2
871 1
872 1
873 1
874 1
875 1
876 1
877 1
878 2
879 1
880 1
881 1
882 2
883 1
884 2
885 1
886 1
887 1
888 1
889 2
890 2
891 2
892 2
893 1
894 2
895 2
896 1
897 2
898 1
899 2
900 2
901 2
902 2
903 1
904 1
905 1
906 1
907 2
908 1
909 1
910 1
911 2
912 1
913 2
914 2
915 1
916 2
917 2
918 2
919 1
920 1
921 2
922 2
923 2
924 2
925 2
926 1
927 1
928 2
929 2
930 2
931 1
932 2
933 2
934 2
935 1
936 2
937 1
938 2
939 2
940 1
941 1
942 1
943 2
944 1
945 2
946 1
947 1
948 2
949 2
950 2
951 2
952 1
953 1
954 2
955 1
956 2
957 2
958 1
959 1
960 2
961 1
962 1
963 2
964 2
965 1
966 2
967 1
968 1
969 2
970 1
971 2
972 1
973 1
974 1
975 1
976 1
977 1
978 2
979 2
980 2
981 1
982 2
983 1
984 2
985 2
986 1
987 2
988 2
989 2
990 2
991 1
992 2
993 2
994 2
995 1
996 2
997 2
998 2
999 1
1000 1
1001 1
1002 1
1003 1
1004 2
1005 1
1006 2
1007 1
1008 2
1009 2
1010 1
1011 1
1012 1
1013 2
1014 1
1015 2
1016 2
1017 1
1018 2
1019 2
1020 2
1021 2
1022 1
1023 1
1024 2
1025 1
1026 2
1027 2
1028 2
1029 2
1030 1
1031 1
1032 1
1033 2
1034 1
1035 1
1036 1
1037 2
1038 2
1039 2
1040 2
1041 2
1042 1
1043 2
1044 1
1045 1
1046 1
1047 2
1048 1
1049 2
1050 1
1051 2
1052 1
1053 1
1054 1
1055 1
1056 2
1057 1
1058 1
1059 1
1060 1
1061 1
1062 2
1063 1
1064 1
1065 2
1066 1
1067 2
1068 1
1069 1
1070 2
1071 2
1072 1
1073 2
1074 2
1075 1
1076 2
1077 2
1078 1
1079 2
1080 1
1081 1
1082 2
1083 2
1084 2
1085 1
1086 2
1087 1
1088 2
1089 1
1090 2
1091 1
1092 2
1093 2
1094 2
1095 2
1096 1
1097 1
1098 1
1099 1
1100 1
1101 1
1102 2
1103 1
1104 1
1105 1
1106 1
1107 1
1108 2
1109 2
1110 2
1111 1
1112 2
1113 2
1114 2
1115 2
1116 1
1117 2
1118 2
1119 1
1120 1
1121 2
1122 2
1123 2
1124 2
1125 1
1126 1
1127 1
1128 2
1129 1
1130 2
1131 2
1132 2
1133 1
1134 2
1135 2
1136 1
1137 1
1138 1
1139 1
1140 2
1141 2
1142 2
1143 1
1144 1
1145 2
1146 2
1147 1
1148 1
1149 1
1150 2
1151 2
1152 1
1153 1
1154 2
1155 1
1156 2
1157 1
1158 2
1159 2
1160 2
1161 1
1162 2
1163 1
1164 1
1165 1
1166 2
1167 2
1168 1
1169 2
1170 1
1171 1
1172 1
1173 1
1174 2
1175 1
1176 2
1177 1
1178 2
1179 2
1180 2
1181 2
1182 2
1183 2
1184 1
1185 2
1186 2
1187 2
1188 1
1189 2
1190 2
1191 2
1192 1
1193 2
1194 2
1195 2
1196 2
1197 2
1198 2
1199 1
1200 2
1201 1
1202 2
1203 2
1204 2
1205 2
1206 2
1207 1
1208 2
1209 2
1210 1
1211 2
1212 2
1213 2
1214 2
1215 2
1216 1
1217 2
1218 2
1219 2
1220 2
1221 2
1222 1
1223 1
1224 2
1225 2
1226 1
1227 1
1228 1
1229 1
1230 1
1231 2
1232 1
1233 2
1234 1
1235 2
1236 1
1237 1
1238 1
1239 1
1240 2
1241 1
1242 1
1243 1
1244 2
1245 1
1246 1
1247 2
1248 2
1249 2
1250 1
1251 1
1252 1
1253 1
1254 2
1255 2
1256 1
1257 1
1258 2
1259 2
1260 1
1261 1
1262 2
1263 1
1264 1
1265 2
1266 1
1267 1
1268 2
1269 2
1270 2
1271 1
1272 1
1273 1
1274 1
1275 1
1276 1
1277 1
1278 2
1279 2
1280 2
1281 1
1282 1
1283 2
1284 1
1285 2
1286 2
1287 2
1288 1
1289 2
1290 2
1291 1
1292 1
1293 1
1294 2
1295 2
1296 2
1297 2
1298 2
1299 2
1300 2
1301 1
1302 1
1303 2
1304 1
1305 1
1306 1
1307 2
1308 1
1309 2
1310 2
1311 2
1312 1
1313 2
1314 1
1315 2
1316 1
1317 2
1318 1
1319 2
1320 2
1321 1
1322 2
1323 2
1324 1
1325 1
1326 1
1327 2
1328 2
1329 2
1330 1
1331 1
1332 1
1333 2
1334 1
1335 2
1336 2
1337 1
1338 2
1339 2
1340 2
1341 2
1342 2
1343 1
1344 1
1345 1
1346 1
1347 1
1348 1
1349 1
1350 1
1351 1
1352 2
1353 1
1354 1
1355 2
1356 2
1357 1
1358 2
1359 2
1360 1
1361 2
1362 2
1363 2
1364 2
1365 1
1366 2
1367 2
1368 2
1369 1
1370 1
1371 1
1372 2
1373 2
1374 1
1375 1
1376 1
1377 1
1378 2
1379 2
1380 1
1381 2
1382 1
1383 2
1384 2
1385 2
1386 2
1387 2
1388 1
1389 2
1390 2
1391 1
1392 1
1393 2
1394 1
1395 1
1396 1
1397 2
1398 2
1399 2
1400 2
1401 1
1402 1
1403 2
1404 1
1405 1
1406 1
1407 1
1408 2
1409 2
1410 1
1411 2
1412 2
1413 2
1414 2
1415 1
1416 2
1417 1
1418 2
1419 2
1420 2
1421 1
1422 1
1423 2
1424 2
1425 2
1426 2
1427 2
1428 1
1429 2
1430 2
1431 2
1432 2
1433 1
1434 1
1435 2
1436 1
1437 1
1438 2
1439 2
1440 2
1441 2
1442 2
1443 1
1444 1
1445 1
1446 1
1447 2
1448 2
1449 1
1450 2
1451 2
1452 2
1453 1
1454 1
1455 2
1456 2
1457 1
1458 1
1459 2
1460 2
1461 2
1462 2
1463 2
1464 1
1465 1
1466 1
1467 2
1468 1
1469 1
1470 2
1471 2
1472 2
1473 1
1474 2
1475 1
1476 2
1477 1
1478 2
1479 1
1480 1
1481 2
1482 1
1483 2
1484 1
1485 1
1486 1
1487 1
1488 2
1489 2
1490 2
1491 1
1492 2
1493 2
1494 2
1495 2
1496 2
1497 2
1498 1
1499 1
1500 2
1501 1
1502 2
1503 2
1504 2
1505 1
1506 2
1507 1
1508 1
1509 2
1510 1
1511 2
1512 1
1513 1
1514 2
1515 1
1516 2
1517 1
1518 2
1519 1
1520 1
1521 2
1522 2
1523 2
1524 1
1525 2
1526 2
1527 2
1528 1
1529 2
1530 1
1531 1
1532 1
1533 2
1534 2
1535 2
1536 2
1537 2
1538 2
1539 2
1540 2
1541 2
1542 2
1543 2
1544 1
1545 2
1546 2
1547 2
1548 1
1549 1
1550 2
1551 1
1552 1
1553 2
1554 1
1555 2
1556 1
1557 2
1558 1
1559 2
1560 1
1561 1
1562 1
1563 1
1564 2
1565 1
1566 1
1567 1
1568 1
1569 1
1570 2
1571 2
1572 1
1573 2
1574 2
1575 2
1576 1
1577 1
1578 2
1579 2
1580 1
1581 2
1582 2
1583 2
1584 1
1585 2
1586 2
1587 2
1588 1
1589 2
1590 2
1591 2
1592 2
1593 1
1594 1
1595 1
1596 2
1597 2
1598 2
1599 1
1600 1
1601 1
1602 1
1603 1
1604 2
1605 2
1606 2
1607 1
1608 1
1609 1
1610 1
1611 2
1612 2
1613 2
1614 1
1615 1
1616 1
1617 1
1618 2
1619 2
1620 1
1621 1
1622 2
1623 2
1624 1
1625 1
1626 1
1627 2
1628 2
1629 2
1630 2
1631 2
1632 2
1633 2
1634 1
1635 1
1636 1
1637 1
1638 2
1639 2
1640 1
1641 2
1642 1
1643 2
1644 2
1645 1
1646 1
1647 1
1648 1
1649 2
1650 2
1651 1
1652 1
1653 2
1654 1
1655 1
1656 1
1657 1
1658 1
1659 1
1660 2
1661 2
1662 1
1663 1
1664 1
1665 2
1666 2
1667 1
1668 2
1669 1
1670 2
1671 1
1672 2
1673 1
1674 1
1675 1
1676 1
1677 1
1678 1
1679 2
1680 1
1681 1
1682 1
1683 1
1684 2
1685 1
1686 2
1687 2
1688 2
1689 1
1690 2
1691 2
1692 2
1693 2
1694 1
1695 2
1696 1
1697 1
1698 1
1699 1
1700 2
1701 1
1702 1
1703 1
1704 2
1705 2
1706 2
1707 2
1708 1
1709 2
1710 1
1711 2
1712 1
1713 1
1714 2
1715 2
1716 1
1717 1
1718 1
1719 1
1720 2
1721 1
1722 2
1723 2
1724 2
1725 1
1726 2
1727 2
1728 1
1729 1
1730 2
1731 2
1732 2
1733 1
1734 1
1735 1
1736 2
1737 2
1738 2
1739 2
1740 1
1741 1
1742 2
1743 1
1744 2
1745 2
1746 1
1747 1
1748 1
1749 2
1750 2
1751 2
1752 1
1753 1
1754 2
1755 2
1756 2
1757 1
1758 2
1759 1
1760 1
1761 2
1762 2
1763 2
1764 1
1765 2
1766 1
1767 2
1768 1
1769 1
1770 1
1771 1
1772 2
1773 2
1774 2
1775 2
1776 2
1777 2
1778 1
1779 1
1780 1
1781 2
1782 1
1783 2
1784 2
1785 2
1786 1
1787 1
1788 2
1789 1
1790 1
1791 2
1792 2
1793 1
1794 1
1795 2
1796 2
1797 2
1798 2
1799 2
1800 1
1801 1
1802 2
1803 1
1804 2
1805 2
1806 1
1807 1
1808 2
1809 2
1810 2
1811 1
1812 1
1813 2
1814 2
1815 1
1816 1
1817 2
1818 1
1819 2
1820 1
1821 1
1822 1
1823 1
1824 2
1825 2
1826 1
1827 1
1828 1
1829 2
1830 2
1831 2
1832 2
1833 1
1834 1
1835 1
1836 1
1837 2
1838 1
1839 1
1840 2
1841 1
1842 2
1843 1
1844 2
1845 2
1846 2
1847 2
1848 1
1849 1
1850 2
1851 2
1852 2
1853 1
1854 1
1855 2
1856 2
1857 2
1858 1
1859 1
1860 2
1861 1
1862 1
1863 2
1864 2
1865 2
1866 2
1867 2
1868 1
1869 1
1870 2
1871 1
1872 2
1873 2
1874 2
1875 2
1876 2
1877 2
1878 2
1879 2
1880 1
1881 1
1882 1
1883 2
1884 1
1885 2
1886 1
1887 2
1888 1
1889 1
1890 2
1891 1
1892 2
1893 2
1894 2
1895 1
1896 2
1897 1
1898 2
1899 1
1900 2
1901 1
1902 2
1903 1
1904 2
1905 1
1906 1
1907 2
1908 2
1909 2
1910 2
1911 1
1912 1
1913 1
1914 1
1915 1
1916 2
1917 1
1918 1
1919 1
1920 2
1921 1
1922 1
1923 1
1924 2
1925 2
1926 1
1927 2
1928 2
1929 1
1930 1
1931 2
1932 2
1933 1
1934 1
1935 2
1936 1
1937 1
1938 1
1939 2
1940 1
1941 1
1942 1
1943 1
1944 1
1945 2
1946 1
1947 1
1948 1
1949 2
1950 1
1951 2
1952 2
1953 2
1954 1
1955 1
1956 1
1957 2
1958 1
1959 2
1960 1
1961 2
1962 1
1963 1
1964 2
1965 2
1966 2
1967 2
1968 1
1969 2
1970 1
1971 1
1972 2
1973 1
1974 2
1975 1
1976 1
1977 2
1978 1
1979 1
1980 2
1981 1
1982 1
1983 2
1984 1
1985 2
1986 2
1987 1
1988 2
1989 2
1990 1
1991 1
1992 2
1993 1
1994 2
1995 2
1996 1
1997 2
1998 2
1999 2
2000 1
2001 2
2002 1
2003 1
2004 2
2005 1
2006 1
2007 1
2008 2
2009 1
2010 2
2011 1
2012 2
2013 2
2014 1
2015 1
2016 2
2017 1
2018 1
2019 1
2020 1
2021 1
2022 2
2023 2
2024 2
2025 1
2026 1
2027 1
2028 1
2029 1
2030 1
2031 1
2032 1
2033 1
2034 2
2035 2
2036 1
2037 2
2038 1
2039 2
2040 2
2041 1
2042 1
2043 1
2044 1
2045 1
2046 1
2047 2
2048 1
2049 2
2050 1
2051 1
2052 1
2053 2
2054 1
2055 1
2056 2
2057 1
2058 2
2059 2
2060 2
2061 1
2062 2
2063 2
2064 1
2065 1
2066 1
2067 2
2068 2
2069 1
2070 2
2071 2
2072 1
2073 1
2074 2
2075 2
2076 2
2077 2
2078 1
2079 2
2080 1
2081 2
2082 1
2083 2
2084 2
2085 1
2086 1
2087 2
2088 1
2089 1
2090 2
2091 2
2092 1
2093 2
2094 1
2095 2
2096 2
2097 2
2098 1
2099 1
2100 1
2101 1
2102 1
2103 1
2104 2
2105 2
2106 1
2107 1
2108 1
2109 2
2110 1
2111 2
2112 2
2113 2
2114 1
2115 2
2116 1
2117 1
2118 2
2119 2
2120 1
2121 2
2122 2
2123 1
2124 2
2125 2
2126 1
2127 1
2128 1
2129 1
2130 2
2131 2
2132 2
2133 1
2134 1
2135 1
2136 1
2137 2
2138 1
2139 1
2140 2
2141 2
2142 1
2143 1
2144 1
2145 2
2146 2
2147 2
2148 1
2149 1
2150 2
2151 2
2152 2
2153 1
2154 2
2155 1
2156 2
2157 1
2158 2
2159 1
2160 1
2161 2
2162 2
2163 2
2164 1
2165 2
2166 2
2167 1
2168 1
2169 1
2170 1
2171 2
2172 2
2173 1
2174 1
2175 1
2176 1
2177 1
2178 1
2179 1
2180 2
2181 1
2182 1
2183 1
2184 1
2185 2
2186 1
2187 1
2188 1
2189 1
2190 2
2191 2
2192 1
2193 2
2194 1
2195 1
2196 1
2197 2
2198 2
2199 2
2200 1
2201 2
2202 1
2203 2
2204 1
2205 1
2206 2
2207 1
2208 1
2209 1
2210 1
2211 2
2212 2
2213 1
2214 1
2215 2
2216 2
2217 1
2218 1
2219 1
2220 1
2221 1
2222 2
2223 1
2224 1
2225 2
2226 1
2227 2
2228 1
2229 1
2230 2
2231 1
2232 2
2233 1
2234 2
2235 1
2236 1
2237 1
2238 2
2239 2
2240 2
2241 1
2242 2
2243 1
2244 2
2245 1
2246 1
2247 1
2248 1
2249 1
2250 2
2251 1
2252 2
2253 1
2254 1
2255 1
2256 2
2257 2
2258 1
2259 1
2260 2
2261 1
2262 1
2263 1
2264 2
2265 2
2266 2
2267 2
2268 1
2269 2
2270 1
2271 2
2272 2
2273 2
2274 2
2275 1
2276 1
2277 1
2278 2
2279 1
2280 1
2281 1
2282 1
2283 2
2284 1
2285 1
2286 1
2287 2
2288 1
2289 2
2290 2
2291 1
2292 1
2293 1
2294 2
2295 2
2296 1
2297 1
2298 2
2299 1
2300 1
2301 2
2302 2
2303 2
2304 1
2305 1
2306 2
2307 2
2308 2
2309 2
2310 2
2311 1
2312 2
2313 2
2314 2
2315 2
2316 1
2317 1
2318 2
2319 1
2320 1
2321 1
2322 1
2323 1
2324 2
2325 1
2326 2
2327 1
2328 1
2329 1
2330 1
2331 2
2332 2
2333 1
2334 1
2335 2
2336 2
2337 1
2338 1
2339 2
2340 1
2341 1
2342 2
2343 1
2344 2
2345 2
2346 1
2347 2
2348 1
2349 2
2350 2
2351 2
2352 1
2353 1
2354 1
2355 2
2356 2
2357 2
2358 2
2359 1
2360 1
2361 1
2362 2
2363 1
2364 1
2365 1
2366 1
2367 1
2368 1
2369 1
2370 2
2371 2
2372 2
2373 2
2374 2
2375 2
2376 2
2377 2
2378 2
2379 1
2380 2
2381 2
2382 2
2383 1
2384 2
2385 1
2386 2
2387 2
2388 1
2389 2
2390 2
2391 1
2392 2
2393 2
2394 2
2395 2
2396 1
2397 2
2398 2
2399 2
2400 2
2401 2
2402 1
2403 1
2404 1
2405 1
2406 1
2407 2
2408 1
2409 1
2410 2
2411 2
2412 1
2413 2
2414 2
2415 2
2416 1
2417 2
2418 1
2419 2
2420 2
2421 1
2422 1
2423 2
2424 1
2425 2
2426 1
2427 1
2428 1
2429 2
2430 2
2431 2
2432 2
2433 2
2434 1
2435 1
2436 1
2437 2
2438 1
2439 1
2440 1
2441 2
2442 1
2443 2
2444 2
2445 2
2446 2
2447 2
2448 1
2449 2
2450 2
2451 2
2452 2
2453 1
2454 1
2455 1
2456 1
2457 1
2458 1
2459 1
2460 2
2461 1
2462 2
2463 2
2464 2
2465 2
2466 1
2467 2
2468 2
2469 2
2470 1
2471 1
2472 1
2473 1
2474 1
2475 2
2476 2
2477 2
2478 1
2479 1
2480 1
2481 2
2482 2
2483 1
2484 2
2485 2
2486 2
2487 2
2488 1
2489 2
2490 1
2491 2
2492 1
2493 1
2494 1
2495 2
2496 1
2497 2
2498 2
2499 1
2500 2
2501 2
2502 1
2503 2
2504 2
2505 2
2506 2
2507 1
2508 2
2509 2
2510 1
2511 2
2512 2
2513 1
2514 2
2515 2
2516 1
2517 1
2518 1
2519 1
2520 2
2521 2
2522 2
2523 1
2524 2
2525 1
2526 2
2527 2
2528 2
2529 2
2530 2
2531 2
2532 1
2533 1
2534 1
2535 1
2536 2
2537 1
2538 1
2539 2
2540 1
2541 1
2542 2
2543 2
2544 2
2545 1
2546 2
2547 2
2548 1
2549 2
2550 2
2551 1
2552 1
2553 1
2554 2
2555 1
2556 1
2557 2
2558 2
2559 1
2560 1
2561 1
2562 2
2563 2
2564 1
2565 2
2566 2
2567 1
2568 1
2569 1
2570 1
2571 1
2572 2
2573 1
2574 2
2575 1
2576 2
2577 2
2578 2
2579 2
2580 1
2581 1
2582 2
2583 1
2584 2
2585 2
2586 1
2587 1
2588 1
2589 2
2590 1
2591 2
2592 2
2593 2
2594 1
2595 2
2596 2
2597 1
2598 1
2599 1
2600 2
2601 1
2602 1
2603 2
2604 2
2605 1
2606 2
2607 2
2608 2
2609 2
2610 2
2611 1
2612 1
2613 2
2614 1
2615 1
2616 2
2617 2
2618 1
2619 1
2620 2
2621 1
2622 1
2623 1
2624 1
2625 2
2626 2
2627 2
2628 1
2629 2
2630 2
2631 1
2632 2
2633 2
2634 1
2635 1
2636 2
2637 1
2638 1
2639 2
2640 1
2641 2
2642 1
2643 2
2644 1
2645 1
2646 1
2647 2
2648 2
2649 1
2650 1
2651 1
2652 1
2653 1
2654 2
2655 1
2656 1
2657 1
2658 2
2659 1
2660 1
2661 1
2662 2
2663 2
2664 2
2665 1
2666 2
2667 2
2668 2
2669 2
2670 1
2671 2
2672 2
2673 2
2674 2
2675 1
2676 2
2677 1
2678 1
2679 1
2680 2
2681 2
2682 1
2683 1
2684 1
2685 1
2686 1
2687 1
2688 2
2689 2
2690 2
2691 1
2692 1
2693 1
2694 1
2695 2
2696 2
2697 1
2698 2
2699 1
2700 1
2701 2
2702 1
2703 2
2704 2
2705 1
2706 1
2707 1
2708 2
2709 2
2710 1
2711 2
2712 1
2713 2
2714 1
2715 1
2716 2
2717 2
2718 2
2719 1
2720 2
2721 1
2722 2
2723 2
2724 2
2725 1
2726 1
2727 1
2728 2
2729 2
2730 2
2731 1
2732 2
2733 1
2734 2
2735 1
2736 2
2737 1
2738 2
2739 1
2740 1
2741 1
2742 2
2743 2
2744 2
2745 1
2746 1
2747 2
2748 1
2749 2
2750 2
2751 1
2752 1
2753 1
2754 2
2755 1
2756 2
2757 2
2758 1
2759 2
2760 1
2761 2
2762 2
2763 2
2764 1
2765 1
2766 2
2767 1
2768 2
2769 2
2770 2
2771 2
2772 1
2773 1
2774 2
2775 1
2776 2
2777 2
2778 1
2779 2
2780 1
2781 2
2782 2
2783 1
2784 1
2785 1
2786 1
2787 2
2788 1
2789 2
2790 1
2791 1
2792 1
2793 2
2794 2
2795 1
2796 2
2797 2
2798 1
2799 1
2800 1
2801 2
2802 2
2803 1
2804 1
2805 1
2806 1
2807 2
2808 1
2809 1
2810 1
2811 1
2812 1
2813 1
2814 1
2815 2
2816 1
2817 2
2818 2
2819 1
2820 2
2821 1
2822 2
2823 1
2824 1
2825 2
2826 1
2827 1
2828 2
2829 1
2830 1
2831 2
2832 2
2833 1
2834 1
2835 1
2836 2
2837 2
2838 1
2839 1
2840 1
2841 1
2842 2
2843 2
2844 1
2845 2
2846 1
2847 1
2848 2
2849 1
2850 2
2851 1
2852 2
2853 1
2854 1
2855 1
2856 1
2857 2
2858 2
2859 2
2860 1
2861 1
2862 2
2863 1
2864 2
2865 2
2866 1
2867 1
2868 2
2869 1
2870 1
2871 1
2872 2
2873 1
2874 2
2875 1
2876 1
2877 2
2878 2
2879 1
2880 1
2881 1
2882 1
2883 1
2884 1
2885 2
2886 2
2887 2
2888 2
2889 1
2890 2
2891 1
2892 1
2893 2
2894 1
2895 1
2896 2
2897 2
2898 2
2899 1
2900 2
2901 2
2902 2
2903 2
2904 1
2905 2
2906 1
2907 2
2908 1
2909 2
2910 1
2911 1
2912 2
2913 1
2914 2
2915 1
2916 2
2917 1
2918 2
2919 2
2920 2
2921 2
2922 1
2923 2
2924 1
2925 1
2926 2
2927 2
2928 2
2929 1
2930 1
2931 1
2932 2
2933 1
2934 1
2935 1
2936 1
2937 1
2938 1
2939 2
2940 1
2941 2
2942 1
2943 2
2944 2
2945 2
2946 2
2947 2
2948 1
2949 1
2950 2
2951 2
2952 2
2953 1
2954 2
2955 2
2956 1
2957 1
2958 1
2959 2
2960 1
2961 1
2962 1
2963 2
2964 1
2965 2
2966 2
2967 2
2968 2
2969 2
2970 2
2971 1
2972 2
2973 2
2974 1
2975 2
2976 2
2977 1
2978 1
2979 1
2980 1
2981 2
2982 2
2983 1
2984 1
2985 1
2986 1
2987 2
2988 1
2989 2
2990 1
2991 2
2992 1
2993 1
2994 1
2995 2
2996 2
2997 1
2998 1
2999 2
3000 1
3001 1
3002 1
3003 2
3004 2
3005 1
3006 1
3007 1
3008 1
3009 2
3010 1
3011 1
3012 1
3013 2
3014 2
3015 1
3016 2
3017 1
3018 2
3019 2
3020 1
3021 1
3022 2
3023 2
3024 2
3025 1
3026 1
3027 2
3028 2
3029 1
3030 2
3031 2
3032 2
3033 2
3034 1
3035 2
3036 1
3037 2
3038 2
3039 1
3040 2
3041 1
3042 2
3043 1
3044 2
3045 2
3046 2
3047 2
3048 1
3049 1
3050 1
3051 2
3052 2
3053 1
3054 1
3055 1
3056 1
3057 2
3058 1
3059 2
3060 2
3061 2
3062 1
3063 2
3064 1
3065 2
3066 2
3067 2
3068 2
3069 2
3070 1
3071 2
3072 1
3073 2
3074 2
3075 2
3076 1
3077 2
3078 2
3079 1
3080 1
3081 1
3082 2
3083 2
3084 1
3085 1
3086 2
3087 2
3088 2
3089 2
3090 2
3091 1
3092 2
3093 2
3094 1
3095 2
3096 1
3097 1
3098 1
3099 1
3100 2
3101 1
3102 2
3103 2
3104 2
3105 1
3106 1
3107 2
3108 1
3109 2
3110 1
3111 2
3112 1
3113 1
3114 2
3115 1
3116 2
3117 2
3118 1
3119 2
3120 1
3121 2
3122 1
3123 1
3124 1
3125 2
3126 2
3127 1
3128 2
3129 2
3130 2
3131 1
3132 1
3133 2
3134 2
3135 2
3136 1
3137 2
3138 1
3139 1
3140 2
3141 2
3142 2
3143 1
3144 2
3145 2
3146 1
3147 1
3148 1
3149 1
3150 2
3151 2
3152 1
3153 1
3154 2
3155 1
3156 1
3157 1
3158 2
3159 1
3160 2
3161 1
3162 2
3163 1
3164 1
3165 1
3166 1
3167 1
3168 1
3169 1
3170 2
3171 1
3172 2
3173 2
3174 2
3175 1
3176 2
3177 1
3178 1
3179 2
3180 1
3181 2
3182 2
3183 2
3184 1
3185 2
3186 2
3187 2
3188 1
3189 2
3190 2
3191 1
3192 2
3193 2
3194 2
3195 1
3196 1
3197 2
3198 1
3199 2
3200 1
3201 2
3202 2
3203 1
3204 2
3205 1
3206 1
3207 2
3208 2
3209 1
3210 2
3211 1
3212 2
3213 2
3214 1
3215 2
3216 2
3217 1
3218 1
3219 2
3220 1
3221 2
3222 2
3223 1
3224 1
3225 1
3226 1
3227 1
3228 2
3229 2
3230 1
3231 2
3232 2
3233 1
3234 1
3235 1
3236 2
3237 2
3238 2
3239 2
3240 2
3241 1
3242 2
3243 1
3244 2
3245 1
3246 1
3247 2
3248 2
3249 1
3250 1
3251 2
3252 1
3253 1
3254 1
3255 2
3256 2
3257 1
3258 1
3259 1
3260 2
3261 1
3262 1
3263 2
3264 2
3265 1
3266 2
3267 2
3268 2
3269 2
3270 2
3271 2
3272 1
3273 2
3274 2
3275 2
3276 2
3277 2
3278 1
3279 2
3280 2
3281 2
3282 2
3283 2
3284 2
3285 1
3286 1
3287 1
3288 1
3289 1
3290 2
3291 1
3292 2
3293 2
3294 1
3295 2
3296 1
3297 2
3298 2
3299 2
3300 1
3301 2
3302 1
3303 1
3304 1
3305 2
3306 1
3307 2
3308 2
3309 2
3310 2
3311 2
3312 2
3313 1
3314 2
3315 1
3316 1
3317 1
3318 2
3319 2
3320 1
3321 2
3322 1
3323 1
3324 1
3325 1
3326 2
3327 2
3328 1
3329 2
3330 2
3331 1
3332 2
3333 1
3334 1
3335 2
3336 1
3337 2
3338 2
3339 2
3340 1
3341 1
3342 2
3343 1
3344 1
3345 1
3346 1
3347 2
3348 2
3349 1
3350 1
3351 2
3352 1
3353 2
3354 1
3355 1
3356 2
3357 2
3358 2
3359 1
3360 1
3361 1
3362 1
3363 1
3364 2
3365 2
3366 1
3367 2
3368 1
3369 1
3370 2
3371 1
3372 2
3373 2
3374 2
3375 2
3376 1
3377 2
3378 2
3379 2
3380 2
3381 1
3382 2
3383 2
3384 1
3385 2
3386 1
3387 2
3388 2
3389 2
3390 2
3391 2
3392 1
3393 2
3394 2
3395 1
3396 1
3397 1
3398 2
3399 2
3400 2
3401 1
3402 1
3403 1
3404 2
3405 1
3406 1
3407 2
3408 1
3409 2
3410 2
3411 2
3412 1
3413 2
3414 1
3415 2
3416 1
3417 1
3418 1
3419 1
3420 1
3421 2
3422 1
3423 2
3424 2
3425 1
3426 1
3427 2
3428 2
3429 1
3430 2
3431 1
3432 2
3433 2
3434 2
3435 2
3436 1
3437 2
3438 1
3439 2
3440 1
3441 1
3442 2
3443 2
3444 2
3445 1
3446 2
3447 2
3448 1
3449 2
3450 2
3451 2
3452 1
3453 2
3454 1
3455 1
3456 1
3457 1
3458 2
3459 2
3460 1
3461 2
3462 2
3463 2
3464 1
3465 2
3466 1
3467 2
3468 1
3469 2
3470 1
3471 1
3472 1
3473 1
3474 2
3475 2
3476 1
3477 1
3478 1
3479 1
3480 1
3481 1
3482 2
3483 2
3484 1
3485 1
3486 2
3487 1
3488 2
3489 2
3490 2
3491 2
3492 1
3493 1
3494 2
3495 2
3496 1
3497 2
3498 2
3499 2
3500 2
3501 1
3502 1
3503 1
3504 1
3505 2
3506 1
3507 1
3508 1
3509 1
3510 1
3511 1
3512 2
3513 1
3514 1
3515 1
3516 1
3517 1
3518 2
3519 1
3520 2
3521 2
3522 1
3523 1
3524 2
3525 2
3526 1
3527 1
3528 1
3529 2
3530 1
3531 2
3532 2
3533 1
3534 1
3535 1
3536 1
3537 2
3538 1
3539 1
3540 1
3541 1
3542 1
3543 2
3544 1
3545 1
3546 1
3547 1
3548 1
3549 2
3550 1
3551 2
3552 2
3553 2
3554 2
3555 1
3556 2
3557 2
3558 1
3559 1
3560 2
3561 1
3562 1
3563 1
3564 1
3565 2
3566 2
3567 1
3568 2
3569 1
3570 1
3571 2
3572 1
3573 1
3574 1
3575 2
3576 1
3577 1
3578 1
3579 1
3580 2
3581 2
3582 2
3583 1
3584 2
3585 1
3586 1
3587 2
3588 1
3589 2
3590 2
3591 1
3592 2
3593 2
3594 1
3595 2
3596 1
3597 1
3598 1
3599 2
3600 2
3601 2
3602 1
3603 1
3604 1
3605 1
3606 2
3607 1
3608 1
3609 1
3610 2
3611 2
3612 1
3613 1
3614 1
3615 1
3616 2
3617 2
3618 2
3619 1
3620 2
3621 2
3622 1
3623 1
3624 2
3625 2
3626 1
3627 2
3628 2
3629 1
3630 2
3631 1
3632 1
3633 1
3634 1
3635 1
3636 1
3637 1
3638 2
3639 1
3640 1
3641 2
3642 2
3643 1
3644 2
3645 2
3646 1
3647 1
3648 2
3649 2
3650 1
3651 2
3652 1
3653 1
3654 1
3655 2
3656 1
3657 1
3658 1
3659 1
3660 1
3661 2
3662 2
3663 1
3664 2
3665 1
3666 2
3667 2
3668 2
3669 1
3670 2
3671 2
3672 1
3673 2
3674 1
3675 1
3676 1
3677 1
3678 2
3679 1
3680 1
3681 1
3682 1
3683 1
3684 1
3685 1
3686 2
3687 1
3688 1
3689 2
3690 2
3691 1
3692 1
3693 1
3694 1
3695 2
3696 1
3697 1
3698 2
3699 1
3700 1
3701 2
3702 1
3703 2
3704 2
3705 2
3706 2
3707 2
3708 2
3709 2
3710 2
3711 2
3712 2
3713 2
3714 2
3715 1
3716 1
3717 2
3718 1
3719 2
3720 2
3721 1
3722 2
3723 2
3724 1
3725 2
3726 2
3727 1
3728 2
3729 1
3730 2
3731 1
3732 1
3733 1
3734 2
3735 1
3736 1
3737 1
3738 2
3739 1
3740 1
3741 1
3742 2
3743 2
3744 1
3745 1
3746 1
3747 2
3748 1
3749 1
3750 2
3751 1
3752 1
3753 2
3754 1
3755 2
3756 2
3757 2
3758 1
3759 1
3760 1
3761 2
3762 1
3763 2
3764 2
3765 2
3766 2
3767 1
3768 1
3769 2
3770 2
3771 2
3772 2
3773 1
3774 1
3775 2
3776 2
3777 1
3778 1
3779 2
3780 2
3781 2
3782 1
3783 2
3784 1
3785 2
3786 2
3787 1
3788 1
3789 2
3790 1
3791 1
3792 2
3793 1
3794 1
3795 2
3796 1
3797 1
3798 2
3799 1
3800 2
3801 2
3802 2
3803 2
3804 2
3805 2
3806 1
3807 2
3808 2
3809 2
3810 2
3811 2
3812 1
3813 2
3814 1
3815 1
3816 1
3817 2
3818 1
3819 2
3820 1
3821 1
3822 2
3823 1
3824 2
3825 2
3826 1
3827 2
3828 2
3829 2
3830 1
3831 2
3832 1
3833 1
3834 2
3835 1
3836 2
3837 2
3838 2
3839 1
3840 2
3841 2
3842 2
3843 1
3844 1
3845 2
3846 2
3847 1
3848 2
3849 2
3850 1
3851 1
3852 1
3853 2
3854 2
3855 1
3856 2
3857 2
3858 2
3859 1
3860 2
3861 1
3862 2
3863 1
3864 1
3865 1
3866 2
3867 2
3868 1
3869 2
3870 1
3871 2
3872 1
3873 2
3874 2
3875 1
3876 1
3877 1
3878 2
3879 2
3880 1
3881 2
3882 1
3883 1
3884 2
3885 1
3886 1
3887 2
3888 1
3889 1
3890 2
3891 2
3892 2
3893 2
3894 1
3895 2
3896 1
3897 2
3898 2
3899 2
3900 2
3901 2
3902 1
3903 1
3904 2
3905 2
3906 1
3907 2
3908 2
3909 1
3910 2
3911 2
3912 1
3913 2
3914 2
3915 1
3916 2
3917 1
3918 1
3919 2
3920 1
3921 2
3922 2
3923 2
3924 1
3925 1
3926 2
3927 1
3928 1
3929 1
3930 1
3931 1
3932 2
3933 1
3934 1
3935 2
3936 1
3937 1
3938 1
3939 1
3940 2
3941 2
3942 2
3943 2
3944 2
3945 2
3946 2
3947 2
3948 2
3949 1
3950 2
3951 2
3952 1
3953 1
3954 1
3955 2
3956 2
3957 1
3958 2
3959 2
3960 2
3961 1
3962 1
3963 2
3964 2
3965 1
3966 1
3967 2
3968 2
3969 1
3970 2
3971 1
3972 2
3973 2
3974 2
3975 2
3976 2
3977 2
3978 2
3979 2
3980 2
3981 1
3982 1
3983 1
3984 1
3985 2
3986 2
3987 1
3988 1
3989 1
3990 1
3991 1
3992 1
3993 2
3994 1
3995 1
3996 2
3997 1
3998 2
3999 1
4000 1
4001 2
4002 1
4003 2
4004 1
4005 2
4006 2
4007 2
4008 1
4009 1
4010 1
4011 2
4012 2
4013 1
4014 1
4015 2
4016 2
4017 2
4018 2
4019 2
4020 2
4021 1
4022 2
4023 2
4024 2
4025 2
4026 2
4027 1
4028 1
4029 2
4030 1
4031 1
4032 1
4033 2
4034 1
4035 2
4036 2
4037 1
4038 2
4039 2
4040 1
4041 2
4042 2
4043 1
4044 2
4045 1
4046 1
4047 1
4048 1
4049 2
4050 2
4051 1
4052 2
4053 1
4054 2
4055 2
4056 1
4057 2
4058 1
4059 1
4060 1
4061 1
4062 2
4063 2
4064 2
4065 2
4066 2
4067 2
4068 2
4069 2
4070 2
4071 2
4072 1
4073 2
4074 1
4075 2
4076 1
4077 1
4078 1
4079 1
4080 2
4081 1
4082 1
4083 2
4084 1
4085 2
4086 1
4087 2
4088 1
4089 2
4090 1
4091 2
4092 2
4093 2
4094 2
4095 2
4096 1
4097 1
4098 1
4099 2
4100 1
4101 1
4102 1
4103 1
4104 2
4105 2
4106 1
4107 2
4108 2
4109 2
4110 2
4111 2
4112 1
4113 1
4114 1
4115 1
4116 2
4117 1
4118 2
4119 2
4120 2
4121 1
4122 1
4123 2
4124 2
4125 2
4126 1
4127 1
4128 1
4129 2
4130 1
4131 2
4132 1
4133 1
4134 2
4135 2
4136 2
4137 1
4138 1
4139 1
4140 2
4141 1
4142 2
4143 1
4144 1
4145 2
4146 2
4147 2
4148 1
4149 2
4150 1
4151 1
4152 2
4153 1
4154 1
4155 1
4156 2
4157 2
4158 1
4159 2
4160 1
4161 1
4162 1
4163 2
4164 1
4165 2
4166 2
4167 2
4168 1
4169 2
4170 1
4171 2
4172 1
4173 2
4174 1
4175 1
4176 2
4177 1
4178 2
4179 2
4180 2
4181 2
4182 2
4183 1
4184 1
4185 2
4186 1
4187 2
4188 1
4189 1
4190 1
4191 1
4192 1
4193 1
4194 2
4195 1
4196 1
4197 1
4198 2
4199 2
4200 1
4201 1
4202 1
4203 1
4204 1
4205 1
4206 2
4207 2
4208 1
4209 1
4210 2
4211 1
4212 2
4213 1
4214 2
4215 2
4216 1
4217 2
4218 1
4219 1
4220 1
4221 1
4222 2
4223 2
4224 1
4225 1
4226 1
4227 2
4228 1
4229 2
4230 1
4231 2
4232 2
4233 2
4234 1
4235 1
4236 2
4237 1
4238 2
4239 2
4240 2
4241 1
4242 1
4243 2
4244 1
4245 2
4246 2
4247 2
4248 2
4249 1
4250 1
4251 1
4252 2
4253 1
4254 1
4255 1
4256 2
4257 2
4258 2
4259 1
4260 2
4261 1
4262 2
4263 1
4264 2
4265 1
4266 1
4267 2
4268 2
4269 1
4270 2
4271 1
4272 1
4273 1
4274 2
4275 2
4276 1
4277 2
4278 1
4279 1
4280 1
4281 2
4282 2
4283 1
4284 2
4285 2
4286 2
4287 1
4288 1
4289 1
4290 1
4291 1
4292 1
4293 2
4294 1
4295 2
4296 2
4297 1
4298 2
4299 1
4300 2
4301 1
4302 2
4303 2
4304 2
4305 1
4306 2
4307 2
4308 2
4309 2
4310 2
4311 1
4312 1
4313 2
4314 1
4315 2
4316 1
4317 1
4318 2
4319 1
4320 1
4321 1
4322 2
4323 2
4324 1
4325 1
4326 2
4327 2
4328 1
4329 1
4330 2
4331 2
4332 1
4333 2
4334 1
4335 1
4336 1
4337 1
4338 2
4339 1
4340 1
4341 2
4342 1
4343 2
4344 2
4345 1
4346 1
4347 2
4348 2
4349 2
4350 2
4351 1
4352 1
4353 2
4354 1
4355 2
4356 1
4357 2
4358 2
4359 1
4360 2
4361 2
4362 2
4363 1
4364 2
4365 1
4366 1
4367 1
4368 1
4369 1
4370 2
4371 2
4372 1
4373 2
4374 1
4375 2
4376 1
4377 1
4378 2
4379 2
4380 2
4381 1
4382 2
4383 1
4384 2
4385 2
4386 2
4387 1
4388 1
4389 1
4390 1
4391 1
4392 1
4393 1
4394 2
4395 1
4396 1
4397 1
4398 1
4399 1
4400 1
4401 2
4402 2
4403 1
4404 2
4405 1
4406 1
4407 2
4408 2
4409 2
4410 1
4411 2
4412 1
4413 2
4414 1
4415 1
4416 1
4417 1
4418 1
4419 2
4420 1
4421 1
4422 1
4423 2
4424 2
4425 1
4426 2
4427 1
4428 2
4429 1
4430 2
4431 2
4432 1
4433 2
4434 2
4435 1
4436 1
4437 1
4438 1
4439 1
4440 2
4441 1
4442 2
4443 2
4444 1
4445 2
4446 2
4447 1
4448 2
4449 1
4450 2
4451 2
4452 2
4453 1
4454 2
4455 1
4456 1
4457 2
4458 1
4459 1
4460 1
4461 2
4462 1
4463 2
4464 1
4465 2
4466 1
4467 2
4468 1
4469 2
4470 2
4471 1
4472 2
4473 1
4474 1
4475 1
4476 2
4477 2
4478 2
4479 2
4480 1
4481 2
4482 2
4483 1
4484 2
4485 2
4486 1
4487 1
4488 2
4489 2
4490 2
4491 2
4492 2
4493 2
4494 2
4495 2
4496 2
4497 1
4498 2
4499 1
4500 1
4501 2
4502 1
4503 1
4504 1
4505 1
4506 1
4507 2
4508 2
4509 2
4510 1
4511 2
4512 1
4513 2
4514 2
4515 1
4516 1
4517 2
4518 1
4519 2
4520 1
4521 2
4522 1
4523 1
4524 2
4525 2
4526 2
4527 1
4528 2
4529 1
4530 1
4531 2
4532 2
4533 1
4534 2
4535 2
4536 2
4537 2
4538 2
4539 1
4540 1
4541 1
4542 2
4543 2
4544 2
4545 1
4546 1
4547 2
4548 2
4549 1
4550 1
4551 2
4552 1
4553 2
4554 2
4555 1
4556 1
4557 1
4558 1
4559 1
4560 1
4561 2
4562 1
4563 1
4564 1
4565 2
4566 2
4567 2
4568 1
4569 1
4570 1
4571 1
4572 2
4573 1
4574 1
4575 2
4576 1
4577 2
4578 2
4579 2
4580 1
4581 2
4582 2
4583 1
4584 1
4585 1
4586 2
4587 1
4588 2
4589 1
4590 2
4591 1
4592 2
4593 1
4594 2
4595 1
4596 2
4597 2
4598 2
4599 2
4600 1
4601 2
4602 1
4603 2
4604 2
4605 2
4606 1
4607 1
4608 1
4609 1
4610 2
4611 2
4612 1
4613 2
4614 1
4615 1
4616 2
4617 2
4618 1
4619 1
4620 1
4621 2
4622 2
4623 1
4624 1
4625 1
4626 1
4627 1
4628 2
4629 2
4630 1
4631 2
4632 1
4633 1
4634 1
4635 2
4636 1
4637 1
4638 2
4639 1
4640 1
4641 1
4642 1
4643 1
4644 1
4645 1
4646 1
4647 2
4648 1
4649 1
4650 1
4651 1
4652 1
4653 1
4654 1
4655 1
4656 1
4657 2
4658 2
4659 2
4660 2
4661 2
4662 2
4663 1
4664 1
4665 1
4666 1
4667 2
4668 2
4669 2
4670 2
4671 2
4672 2
4673 2
4674 2
4675 2
4676 2
4677 2
4678 2
4679 1
4680 2
4681 2
4682 1
4683 1
4684 2
4685 1
4686 1
4687 1
4688 2
4689 2
4690 2
4691 1
4692 2
4693 1
4694 1
4695 2
4696 2
4697 1
4698 1
4699 1
4700 2
4701 2
4702 2
4703 1
4704 1
4705 2
4706 1
4707 1
4708 2
4709 2
4710 2
4711 1
4712 1
4713 1
4714 2
4715 1
4716 1
4717 2
4718 1
4719 2
4720 1
4721 2
4722 2
4723 2
4724 2
4725 1
4726 2
4727 2
4728 2
4729 1
4730 2
4731 1
4732 1
4733 1
4734 1
4735 1
4736 1
4737 1
4738 1
4739 1
4740 2
4741 2
4742 1
4743 1
4744 1
4745 1
4746 2
4747 2
4748 2
4749 1
4750 2
4751 2
4752 1
4753 1
4754 1
4755 1
4756 1
4757 1
4758 2
4759 1
4760 1
4761 1
4762 2
4763 2
4764 1
4765 1
4766 2
4767 1
4768 2
4769 1
4770 2
4771 1
4772 2
4773 1
4774 1
4775 2
4776 2
4777 2
4778 2
4779 1
4780 2
4781 1
4782 2
4783 1
4784 1
4785 2
4786 1
4787 1
4788 2
4789 2
4790 1
4791 2
4792 2
4793 2
4794 2
4795 1
4796 1
4797 2
4798 1
4799 2
4800 1
4801 1
4802 1
4803 1
4804 2
4805 1
4806 1
4807 1
4808 2
4809 2
4810 2
4811 1
4812 2
4813 1
4814 2
4815 2
4816 1
4817 2
4818 2
4819 1
4820 2
4821 2
4822 1
4823 2
4824 1
4825 2
4826 1
4827 2
4828 1
4829 2
4830 2
4831 2
4832 2
4833 1
4834 1
4835 2
4836 2
4837 1
4838 1
4839 1
4840 1
4841 2
4842 1
4843 2
4844 1
4845 2
4846 1
4847 1
4848 1
4849 2
4850 1
4851 2
4852 1
4853 1
4854 1
4855 2
4856 1
4857 2
4858 2
4859 2
4860 2
4861 1
4862 2
4863 1
4864 2
4865 1
4866 1
4867 1
4868 1
4869 2
4870 2
4871 1
4872 2
4873 2
4874 2
4875 1
4876 2
4877 2
4878 2
4879 2
4880 2
4881 2
4882 1
4883 1
4884 1
4885 2
4886 2
4887 1
4888 2
4889 1
4890 1
4891 1
4892 1
4893 2
4894 1
4895 1
4896 1
4897 1
4898 1
4899 2
4900 2
4901 2
4902 2
4903 1
4904 1
4905 2
4906 2
4907 2
4908 2
4909 2
4910 2
4911 2
4912 2
4913 2
4914 2
4915 1
4916 2
4917 1
4918 1
4919 2
4920 2
4921 1
4922 2
4923 2
4924 1
4925 2
4926 1
4927 1
4928 2
4929 2
4930 1
4931 2
4932 2
4933 2
4934 1
4935 2
4936 2
4937 2
4938 2
4939 1
4940 1
4941 2
4942 1
4943 2
4944 1
4945 2
4946 2
4947 2
4948 1
4949 1
4950 1
4951 2
4952 1
4953 2
4954 1
4955 1
4956 1
4957 1
4958 1
4959 1
4960 1
4961 2
4962 2
4963 2
4964 1
4965 1
4966 1
4967 1
4968 2
4969 1
4970 1
4971 1
4972 1
4973 1
4974 2
4975 1
4976 1
4977 1
4978 1
4979 2
4980 1
4981 1
4982 1
4983 2
4984 1
4985 1
4986 1
4987 1
4988 1
4989 2
4990 2
4991 1
4992 1
4993 1
4994 1
4995 1
4996 1
4997 2
4998 1
4999 2
5000 1
